certificates/rado_a11_c292_N34.cnf
c Rad2 upper bound instance: x1 + 11*x2 - x3 = 292, interval [1,34]
p cnf 34 208
1 6 27 0
-1 -6 -27 0
1 17 28 0
-1 -17 -28 0
1 28 29 0
-1 -28 -29 0
2 7 27 0
-2 -7 -27 0
2 18 28 0
-2 -18 -28 0
2 29 0
-2 -29 0
3 8 27 0
-3 -8 -27 0
3 19 28 0
-3 -19 -28 0
3 29 30 0
-3 -29 -30 0
4 9 27 0
-4 -9 -27 0
4 20 28 0
-4 -20 -28 0
4 29 31 0
-4 -29 -31 0
5 10 27 0
-5 -10 -27 0
5 21 28 0
-5 -21 -28 0
5 29 32 0
-5 -29 -32 0
6 11 27 0
-6 -11 -27 0
6 22 28 0
-6 -22 -28 0
6 29 33 0
-6 -29 -33 0
1 7 26 0
-1 -7 -26 0
7 12 27 0
-7 -12 -27 0
7 23 28 0
-7 -23 -28 0
7 29 34 0
-7 -29 -34 0
2 8 26 0
-2 -8 -26 0
8 13 27 0
-8 -13 -27 0
8 24 28 0
-8 -24 -28 0
3 9 26 0
-3 -9 -26 0
9 14 27 0
-9 -14 -27 0
9 25 28 0
-9 -25 -28 0
4 10 26 0
-4 -10 -26 0
10 15 27 0
-10 -15 -27 0
10 26 28 0
-10 -26 -28 0
5 11 26 0
-5 -11 -26 0
11 16 27 0
-11 -16 -27 0
11 27 28 0
-11 -27 -28 0
6 12 26 0
-6 -12 -26 0
12 17 27 0
-12 -17 -27 0
12 28 0
-12 -28 0
7 13 26 0
-7 -13 -26 0
13 18 27 0
-13 -18 -27 0
13 28 29 0
-13 -28 -29 0
8 14 26 0
-8 -14 -26 0
14 19 27 0
-14 -19 -27 0
14 28 30 0
-14 -28 -30 0
9 15 26 0
-9 -15 -26 0
15 20 27 0
-15 -20 -27 0
15 28 31 0
-15 -28 -31 0
10 16 26 0
-10 -16 -26 0
16 21 27 0
-16 -21 -27 0
16 28 32 0
-16 -28 -32 0
11 17 26 0
-11 -17 -26 0
17 22 27 0
-17 -22 -27 0
17 28 33 0
-17 -28 -33 0
1 18 25 0
-1 -18 -25 0
12 18 26 0
-12 -18 -26 0
18 23 27 0
-18 -23 -27 0
18 28 34 0
-18 -28 -34 0
2 19 25 0
-2 -19 -25 0
13 19 26 0
-13 -19 -26 0
19 24 27 0
-19 -24 -27 0
3 20 25 0
-3 -20 -25 0
14 20 26 0
-14 -20 -26 0
20 25 27 0
-20 -25 -27 0
4 21 25 0
-4 -21 -25 0
15 21 26 0
-15 -21 -26 0
21 26 27 0
-21 -26 -27 0
5 22 25 0
-5 -22 -25 0
16 22 26 0
-16 -22 -26 0
22 27 0
-22 -27 0
6 23 25 0
-6 -23 -25 0
17 23 26 0
-17 -23 -26 0
23 27 28 0
-23 -27 -28 0
7 24 25 0
-7 -24 -25 0
18 24 26 0
-18 -24 -26 0
24 27 29 0
-24 -27 -29 0
8 25 0
-8 -25 0
19 25 26 0
-19 -25 -26 0
25 27 30 0
-25 -27 -30 0
9 25 26 0
-9 -25 -26 0
20 26 0
-20 -26 0
26 27 31 0
-26 -27 -31 0
10 25 27 0
-10 -25 -27 0
27 32 0
-27 -32 0
11 25 28 0
-11 -25 -28 0
22 26 28 0
-22 -26 -28 0
27 28 33 0
-27 -28 -33 0
1 24 29 0
-1 -24 -29 0
12 25 29 0
-12 -25 -29 0
23 26 29 0
-23 -26 -29 0
27 29 34 0
-27 -29 -34 0
2 24 30 0
-2 -24 -30 0
13 25 30 0
-13 -25 -30 0
24 26 30 0
-24 -26 -30 0
3 24 31 0
-3 -24 -31 0
14 25 31 0
-14 -25 -31 0
25 26 31 0
-25 -26 -31 0
4 24 32 0
-4 -24 -32 0
15 25 32 0
-15 -25 -32 0
26 32 0
-26 -32 0
5 24 33 0
-5 -24 -33 0
16 25 33 0
-16 -25 -33 0
26 27 33 0
-26 -27 -33 0
6 24 34 0
-6 -24 -34 0
17 25 34 0
-17 -25 -34 0
26 28 34 0
-26 -28 -34 0
