certificates/rado_a11_c292_N34.drat
-29 27 -34 0
-32 -34 0
-34 0
29 -27 0
-26 -27 0
d -26 -31 -27 0
32 0
-27 0
-26 0
22 0
29 0
21 0
20 0
31 0
33 0
28 0
-2 0
-6 0
-5 0
-4 0
-1 0
-12 0
-13 0
-15 0
-16 0
-17 0
7 0
8 0
0
